
******************************************************************************
This program contains Ipopt, a library for large-scale nonlinear optimization.
 Ipopt is released as open source code under the Eclipse Public License (EPL).
         For more information visit http://projects.coin-or.org/Ipopt
******************************************************************************

This is Ipopt version 3.12.6, running with linear solver ma57.

Number of nonzeros in equality constraint Jacobian...:        0
Number of nonzeros in inequality constraint Jacobian.:       20
Number of nonzeros in Lagrangian Hessian.............:       11

Total number of variables............................:        6
                     variables with only lower bounds:        0
                variables with lower and upper bounds:        6
                     variables with only upper bounds:        0
Total number of equality constraints.................:        0
Total number of inequality constraints...............:        4
        inequality constraints with only lower bounds:        4
   inequality constraints with lower and upper bounds:        0
        inequality constraints with only upper bounds:        0

iter    objective    inf_pr   inf_du lg(mu)  ||d||  lg(rg) alpha_du alpha_pr  ls
   0  9.7445954e-02 3.23e+01 2.58e+01  -1.0 0.00e+00    -  0.00e+00 0.00e+00   0
   1  3.5481635e+00 1.39e+01 1.63e+02  -1.0 3.17e+00    -  1.23e-01 6.90e-01h  1
   2  3.4485456e+00 1.36e+01 1.88e+02  -1.0 1.90e+01    -  3.13e-02 6.44e-03f  2
   3  3.2834889e+00 1.45e+01 1.79e+02  -1.0 4.00e+00   0.0 2.39e-02 2.50e-02h  1
   4  3.4113528e+00 1.37e+01 1.90e+02  -1.0 5.04e-01   1.3 1.74e-01 4.49e-02h  1
   5  3.5511575e+00 7.55e+00 6.78e+01  -1.0 4.01e-01   0.9 1.95e-01 2.91e-01h  1
   6  3.1805201e+00 7.45e+00 6.60e+01  -1.0 1.20e+01   0.4 2.97e-03 4.00e-03f  1
   7  3.1031999e+00 5.00e+00 1.29e+02  -1.0 4.21e+00   0.8 2.27e-02 4.98e-02f  1
   8  2.8532139e+00 3.65e+00 3.03e+02  -1.0 1.16e-01   1.2 8.18e-01 2.43e-01h  1
   9  3.3250185e+00 6.49e-01 1.38e+02  -1.0 1.99e-01    -  6.75e-01 7.75e-01h  1
iter    objective    inf_pr   inf_du lg(mu)  ||d||  lg(rg) alpha_du alpha_pr  ls
  10  3.4587743e+00 6.52e-02 4.63e+01  -1.0 7.84e-01    -  1.00e+00 6.43e-01h  1
  11  3.5778223e+00 0.00e+00 8.09e+00  -1.0 1.18e-01    -  1.00e+00 1.00e+00f  1
  12  3.5950264e+00 0.00e+00 1.70e-01  -1.0 7.41e-02    -  1.00e+00 1.00e+00f  1
  13  3.2679339e+00 0.00e+00 4.37e+01  -2.5 1.02e-01    -  8.76e-01 6.63e-01f  1
  14  3.1914981e+00 0.00e+00 1.53e+01  -2.5 5.79e-02    -  8.51e-01 7.93e-01f  1
  15  3.1482118e+00 0.00e+00 1.28e-01  -2.5 1.16e-01    -  1.00e+00 9.97e-01f  1
  16  3.1519850e+00 0.00e+00 3.25e-02  -2.5 3.37e-02    -  1.00e+00 1.00e+00f  1
  17  3.1524109e+00 0.00e+00 8.88e-04  -2.5 6.15e-03    -  1.00e+00 1.00e+00h  1
  18  3.1371496e+00 0.00e+00 7.93e-01  -3.8 3.23e-02    -  8.68e-01 1.00e+00f  1
  19  3.1366965e+00 0.00e+00 1.39e-03  -3.8 5.61e-03    -  1.00e+00 1.00e+00h  1
iter    objective    inf_pr   inf_du lg(mu)  ||d||  lg(rg) alpha_du alpha_pr  ls
  20  3.1358175e+00 0.00e+00 6.34e-05  -5.7 2.15e-03    -  1.00e+00 1.00e+00f  1
  21  3.1358169e+00 0.00e+00 3.94e-09  -5.7 6.39e-06    -  1.00e+00 1.00e+00h  1
  22  3.1358058e+00 0.00e+00 1.00e-08  -8.6 2.90e-05    -  1.00e+00 1.00e+00f  1
Reallocating memory for MA57: lfact (260)
  23  3.1358058e+00 0.00e+00 9.33e-15  -9.0 2.61e-08    -  1.00e+00 1.00e+00h  1

Number of Iterations....: 23

                                   (scaled)                 (unscaled)
Objective...............:   3.1358058358430272e+00    3.1358058358430272e+00
Dual infeasibility......:   9.3258734068513149e-15    5.3290705182007514e-15
Constraint violation....:   0.0000000000000000e+00    0.0000000000000000e+00
Complementarity.........:   9.0909107274199322e-10    9.0909107274199322e-10
Overall NLP error.......:   9.0909107274199322e-10    9.0909107274199322e-10


Number of objective function evaluations             = 26
Number of objective gradient evaluations             = 24
Number of equality constraint evaluations            = 0
Number of inequality constraint evaluations          = 26
Number of equality constraint Jacobian evaluations   = 0
Number of inequality constraint Jacobian evaluations = 24
Number of Lagrangian Hessian evaluations             = 23
Total CPU secs in IPOPT (w/o function evaluations)   =      0.010
Total CPU secs in NLP function evaluations           =      0.000

EXIT: Optimal Solution Found.

************************ CUTEst statistics ************************


 Package used            :  IPOPT
 Problem                 :  HS97      
 # variables             =               6
 # constraints           =               4
 # objective functions   =        0.5100000E+02
 # objective gradients   =        0.2500000E+02
 # objective Hessians    =        0.2400000E+02
 # Hessian-vector prdct  =        0.0000000E+00
 # constraints functions =        0.5200000E+02
 # constraints gradients =        0.2600000E+02
 # constraints Hessians  =        0.2400000E+02
 Exit code               =               0
 Final f                 =   0.3135806E+01
 Set up time             =            0.00 seconds
 Solve time              =            0.03 seconds


******************************************************************

System Time =       0.0080000004 s.
